n=214;
k_min=7;
k_max=7;
M=[| 166, 141, 146, 126, 145, 126, 146
 | 166, 138, 151, 126, 150, 120, 146
 | 164, 139, 152, 126, 150, 121, 145
 | 165, 141, 149, 126, 148, 123, 145
 | 163, 141, 151, 125, 149, 122, 145
 | 165, 142, 150, 126, 148, 122, 144
 | 164, 141, 151, 125, 148, 122, 145
 | 164, 142, 151, 125, 147, 123, 145
 | 166, 139, 149, 127, 147, 121, 147
 | 165, 143, 150, 125, 147, 123, 145
 | 164, 142, 150, 126, 148, 122, 144
 | 164, 144, 149, 125, 146, 124, 144
 | 164, 142, 151, 126, 148, 122, 144
 | 164, 143, 150, 125, 147, 124, 144
 | 163, 145, 150, 125, 146, 125, 144
 | 164, 144, 150, 125, 146, 124, 144
 | 163, 145, 149, 125, 145, 126, 144
 | 164, 143, 145, 126, 143, 127, 149
 | 166, 142, 148, 124, 144, 125, 148
 | 164, 143, 149, 125, 147, 123, 145
 | 164, 144, 149, 125, 146, 124, 145
 | 166, 143, 147, 124, 143, 125, 149
 | 164, 144, 148, 125, 145, 125, 145
 | 164, 144, 149, 125, 146, 124, 145
 | 164, 142, 150, 125, 146, 123, 146
 | 165, 143, 149, 125, 146, 124, 145
 | 165, 142, 149, 125, 147, 123, 146
 | 165, 143, 150, 125, 146, 123, 145
 | 163, 145, 149, 125, 146, 125, 144
 | 166, 143, 149, 124, 146, 123, 145
 | 163, 145, 149, 125, 145, 125, 144
 | 163, 144, 150, 124, 146, 125, 145
 | 164, 144, 149, 125, 146, 124, 145
 | 163, 145, 150, 125, 145, 125, 144
 | 163, 145, 148, 125, 145, 125, 145
 | 165, 142, 150, 125, 146, 123, 146
 | 166, 141, 147, 126, 145, 124, 148
 | 164, 145, 149, 125, 145, 125, 145
 | 163, 144, 146, 125, 141, 129, 149
 | 163, 144, 146, 125, 141, 129, 149
 | 164, 145, 149, 124, 145, 125, 145
 | 163, 145, 149, 124, 145, 125, 145
 | 165, 143, 149, 125, 146, 123, 146
 | 164, 144, 145, 125, 141, 130, 148
 | 163, 145, 148, 125, 145, 126, 145
 | 164, 143, 146, 126, 144, 125, 148
 | 164, 144, 149, 124, 144, 125, 147
 | 164, 145, 144, 125, 140, 130, 149
 | 164, 147, 144, 124, 139, 132, 147
 | 164, 142, 147, 126, 144, 125, 148
 | 166, 145, 144, 124, 139, 131, 148
 | 162, 145, 147, 125, 143, 126, 148
 | 161, 144, 150, 124, 143, 125, 149
 | 162, 145, 149, 123, 142, 126, 149
 | 162, 145, 150, 123, 142, 125, 149
 | 166, 148, 149, 121, 140, 126, 145
 | 164, 143, 150, 125, 147, 123, 145
 | 165, 143, 149, 125, 146, 123, 145
 | 163, 140, 151, 126, 149, 122, 145
 | 165, 141, 150, 125, 148, 122, 145
 | 166, 142, 149, 123, 144, 124, 147
 | 166, 141, 147, 126, 146, 124, 148
 | 163, 144, 145, 126, 142, 129, 148
 | 163, 144, 144, 126, 141, 130, 149
 | 163, 145, 145, 124, 141, 129, 148
 | 163, 144, 146, 124, 142, 128, 149
 | 166, 147, 144, 123, 139, 130, 147
 | 166, 147, 145, 123, 139, 131, 147
 | 166, 147, 145, 123, 139, 130, 147
 | 164, 147, 144, 123, 138, 132, 148
 | 166, 138, 149, 128, 150, 119, 146
 | 166, 140, 147, 127, 147, 123, 146
 | 165, 140, 151, 126, 150, 121, 144
 | 164, 140, 151, 126, 150, 121, 145
 | 165, 141, 151, 126, 149, 121, 144
 | 165, 141, 151, 126, 149, 121, 144
 | 165, 140, 149, 127, 149, 121, 145
 | 165, 141, 150, 126, 149, 122, 144
 | 165, 139, 152, 125, 149, 121, 146
 | 164, 142, 150, 127, 149, 122, 144
 | 163, 141, 149, 128, 149, 122, 144
 | 164, 140, 152, 126, 150, 121, 145
 | 164, 140, 151, 126, 149, 122, 145
 | 165, 141, 150, 126, 149, 121, 144
 | 166, 135, 150, 131, 154, 116, 145
 | 164, 141, 150, 125, 148, 122, 146
 | 163, 141, 152, 125, 148, 122, 145
 | 165, 140, 150, 126, 149, 121, 145
 | 165, 142, 150, 126, 148, 122, 144
 | 164, 143, 150, 126, 148, 123, 143
 | 163, 145, 146, 126, 144, 127, 146
 | 164, 143, 150, 125, 147, 123, 145
 | 166, 142, 152, 122, 145, 123, 146
 | 164, 142, 152, 124, 147, 122, 146
 | 164, 143, 150, 125, 147, 123, 144
 | 164, 142, 148, 126, 146, 124, 147
 | 162, 145, 147, 126, 143, 127, 146
 | 166, 147, 148, 123, 142, 127, 143
 | 166, 144, 150, 124, 144, 123, 145
 | 163, 145, 150, 124, 144, 124, 147
 | 166, 145, 150, 122, 143, 124, 146
 | 166, 148, 146, 123, 140, 127, 146
 | 166, 149, 149, 120, 139, 129, 146
 | 166, 148, 142, 124, 132, 137, 147
 | 166, 148, 144, 122, 133, 133, 150
 | 145, 156, 144, 127, 126, 155, 144
 | 146, 149, 143, 134, 133, 149, 143
 | 148, 151, 141, 130, 128, 155, 143
 | 147, 166, 150, 117, 124, 138, 154
 | 148, 156, 150, 121, 130, 140, 151
 | 144, 153, 141, 125, 126, 165, 142
 | 144, 152, 141, 126, 126, 166, 142
 | 147, 156, 142, 124, 125, 158, 144
 | 166, 140, 149, 126, 148, 122, 145
 | 166, 142, 147, 126, 147, 124, 144
 | 166, 141, 148, 126, 148, 123, 145
 | 166, 141, 148, 126, 147, 123, 145
 | 166, 138, 148, 128, 150, 120, 145
 | 166, 140, 149, 127, 149, 121, 145
 | 164, 139, 150, 127, 149, 121, 146
 | 166, 141, 148, 126, 147, 123, 145
 | 165, 141, 150, 126, 149, 122, 144
 | 164, 141, 150, 126, 148, 122, 145
 | 165, 140, 150, 127, 149, 120, 146
 | 165, 142, 149, 125, 146, 124, 145
 | 166, 143, 148, 126, 146, 124, 145
 | 165, 143, 148, 125, 146, 124, 145
 | 159, 148, 148, 123, 137, 128, 154
 | 159, 147, 150, 123, 138, 126, 153
 | 155, 153, 151, 121, 130, 131, 156
 | 153, 157, 150, 119, 127, 136, 155
 | 149, 159, 145, 124, 124, 149, 147
 | 165, 140, 149, 127, 148, 123, 145
 | 164, 140, 147, 128, 148, 123, 146
 | 164, 141, 150, 126, 148, 122, 145
 | 165, 142, 148, 126, 147, 124, 145
 | 164, 143, 150, 125, 147, 124, 144
 | 166, 142, 150, 126, 148, 122, 144
 | 166, 141, 151, 125, 149, 121, 143
 | 166, 141, 150, 126, 149, 121, 143
 | 166, 140, 149, 126, 148, 121, 145
 | 166, 142, 149, 125, 147, 123, 145
 | 164, 142, 150, 126, 148, 123, 144
 | 164, 142, 149, 127, 148, 122, 145
 | 163, 145, 150, 124, 144, 125, 146
 | 164, 144, 148, 126, 145, 125, 145
 | 165, 142, 150, 123, 145, 124, 147
 | 164, 141, 150, 126, 147, 122, 146
 | 165, 142, 149, 125, 147, 123, 146
 | 162, 146, 148, 126, 145, 126, 143
 | 164, 142, 149, 126, 147, 123, 146
 | 163, 144, 145, 126, 142, 128, 149
 | 163, 143, 150, 123, 144, 126, 147
 | 164, 141, 150, 125, 147, 122, 146
 | 164, 144, 148, 125, 145, 125, 145
 | 165, 143, 150, 124, 145, 124, 146
 | 164, 142, 150, 125, 145, 124, 147
 | 163, 144, 145, 125, 141, 129, 149
 | 165, 142, 147, 126, 145, 124, 148
 | 166, 142, 147, 126, 144, 124, 148
 | 164, 143, 147, 126, 144, 125, 148
 | 164, 143, 149, 123, 144, 126, 148
 | 166, 142, 145, 126, 143, 126, 148
 | 151, 136, 149, 143, 152, 123, 142
 | 158, 151, 149, 122, 134, 132, 150
 | 153, 162, 143, 122, 129, 143, 145
 | 150, 166, 142, 122, 129, 146, 142
 | 147, 156, 150, 122, 127, 145, 149
 | 149, 151, 152, 126, 132, 136, 150
 | 147, 159, 152, 121, 126, 140, 152
 | 147, 166, 148, 120, 122, 144, 150
 | 143, 136, 143, 166, 143, 127, 139
 | 143, 136, 143, 165, 143, 127, 139
 | 147, 164, 147, 120, 123, 147, 149
 | 156, 148, 151, 126, 136, 129, 151
 | 148, 157, 151, 120, 127, 142, 151
 | 163, 147, 149, 120, 137, 126, 154
 | 160, 148, 149, 120, 137, 129, 154
 | 166, 146, 150, 119, 138, 122, 156
 | 163, 146, 151, 120, 138, 124, 155
 | 152, 141, 166, 123, 145, 121, 148
 | 155, 153, 155, 116, 128, 123, 166
 | 149, 158, 156, 118, 125, 134, 157
 | 148, 161, 150, 119, 127, 138, 154
 | 147, 144, 153, 133, 144, 128, 148
 | 156, 133, 148, 137, 166, 117, 140
 | 156, 135, 149, 138, 158, 119, 142
 | 163, 143, 148, 125, 145, 125, 148
 | 155, 146, 147, 131, 138, 127, 152
 | 166, 143, 147, 129, 141, 122, 149
 | 158, 145, 154, 122, 142, 123, 153
 | 150, 147, 165, 123, 136, 122, 155
 | 150, 147, 163, 123, 135, 125, 154
 | 149, 146, 163, 125, 138, 123, 153
 | 149, 146, 165, 124, 138, 123, 152
 | 150, 147, 164, 123, 134, 124, 154
 | 149, 149, 162, 122, 133, 126, 154
 | 150, 148, 166, 121, 134, 122, 155
 | 150, 147, 166, 122, 134, 123, 155
 | 150, 147, 163, 123, 135, 121, 156
 | 150, 146, 162, 125, 138, 122, 154
 | 149, 147, 147, 137, 140, 134, 143
 | 150, 146, 162, 125, 138, 123, 153
 | 149, 145, 163, 126, 140, 122, 152
 | 150, 147, 164, 123, 136, 122, 155
 | 150, 147, 162, 124, 138, 123, 153
 | 150, 147, 162, 124, 137, 123, 154
 | 146, 138, 166, 136, 148, 120, 143
 | 150, 149, 166, 121, 131, 124, 156
 | 150, 147, 162, 125, 135, 125, 154
 | 149, 146, 162, 125, 139, 122, 153
 | 149, 145, 166, 124, 139, 123, 151
 | 149, 145, 165, 124, 139, 123, 151
 | 149, 146, 165, 124, 138, 124, 152 |];
 P=[1, 1, 1, 1, 1, 1, 1, 1, 1, 1, 1, 1, 1, 1, 1, 1, 1, 1, 1, 1, 1, 1, 1, 1, 1, 1, 1, 1, 1, 1, 1, 1, 1, 1, 1, 1, 1, 1, 1, 1, 1, 1, 1, 1, 1, 1, 1, 1, 1, 1, 1, 1, 1, 1, 1, 1, 1, 1, 1, 1, 1, 1, 1, 1, 1, 1, 1, 1, 1, 1, 1, 1, 1, 1, 1, 1, 1, 1, 1, 1, 1, 1, 1, 1, 1, 1, 1, 1, 1, 1, 1, 1, 1, 1, 1, 1, 1, 1, 1, 1, 1, 1, 1, 1, 1, 6, 6, 6, 2, 2, 6, 6, 6, 1, 1, 1, 1, 1, 1, 1, 1, 1, 1, 1, 1, 1, 1, 1, 1, 1, 2, 6, 1, 1, 1, 1, 1, 1, 1, 1, 1, 1, 1, 1, 1, 1, 1, 1, 1, 1, 1, 1, 1, 1, 1, 1, 1, 1, 1, 1, 1, 1, 1, 5, 1, 2, 2, 2, 2, 2, 2, 4, 4, 2, 1, 2, 1, 1, 1, 1, 3, 7, 2, 2, 3, 5, 5, 1, 1, 1, 7, 3, 3, 3, 3, 3, 3, 3, 3, 3, 3, 2, 3, 3, 3, 3, 3, 3, 3, 3, 3, 3, 3, 3 ];